Please solve the following SAT Problem encoded in DIMACS format, provide line of thoughts, write your final answer as a single solution at the end of response with header 'answer: ' : 
p cnf 10 60
-2 -1 -4 0
-4 6 -8 0
-10 8 -7 0
8 1 -9 0
-4 5 -1 0
-7 -1 6 0
-5 8 9 0
-1 -10 -9 0
1 -3 -10 0
5 10 6 0
3 -1 -9 0
6 -2 4 0
8 -4 -3 0
-2 3 -7 0
-5 -9 6 0
-7 -2 -10 0
-1 2 -5 0
-2 -4 -5 0
-5 -4 -7 0
6 8 -2 0
-2 -4 -3 0
9 6 10 0
6 -2 -5 0
4 -7 -3 0
-5 -4 8 0
-1 -4 -7 0
-4 -7 -2 0
-7 9 -4 0
-5 -3 -2 0
2 -9 -7 0
10 -2 -7 0
-6 5 -4 0
-9 -7 -4 0
-1 8 -7 0
-3 -7 -1 0
-5 -3 -10 0
2 -3 -9 0
-7 2 -3 0
-5 -4 -1 0
-4 5 -1 0
-9 -3 -2 0
2 8 -5 0
6 -1 8 0
8 -7 -1 0
6 4 -5 0
-1 -9 -7 0
-5 -4 -7 0
-4 2 -1 0
10 2 8 0
-1 -2 -7 0
-4 -2 -9 0
-5 -1 6 0
-7 -5 -8 0
-3 -9 -5 0
8 -1 -5 0
-9 5 -4 0
8 10 4 0
-4 3 -2 0
-1 4 6 0
-2 -9 8 0

